benchmarks/ising_models/2DLattices/SqrLattices/J_unif_-1,1/7x7_square_lattice_unif_frust.wcnf
p wcnf 133 336
w -2 0.531105 0
w 2 1.882867 0
w -3 0.376703 0
w 3 2.654613 0
w -5 0.625177 0
w 5 1.599546 0
w -6 0.673943 0
w 6 1.483805 0
w -8 0.945646 0
w 8 1.057478 0
w -9 0.652194 0
w 9 1.533285 0
w -11 2.622411 0
w 11 0.381328 0
w -12 2.009382 0
w 12 0.497665 0
w -14 1.172178 0
w 14 0.853113 0
w -15 1.100629 0
w 15 0.908572 0
w -17 1.737900 0
w 17 0.575407 0
w -18 1.633281 0
w 18 0.612265 0
w -20 1.755913 0
w 20 0.569504 0
w -22 0.454842 0
w 22 2.198567 0
w -23 0.655696 0
w 23 1.525098 0
w -25 2.288077 0
w 25 0.437048 0
w -26 0.832900 0
w 26 1.200624 0
w -28 2.149912 0
w 28 0.465135 0
w -29 1.511434 0
w 29 0.661623 0
w -31 0.426259 0
w 31 2.345992 0
w -32 0.838418 0
w 32 1.192723 0
w -34 0.692184 0
w 34 1.444703 0
w -35 0.532035 0
w 35 1.879577 0
w -37 1.026213 0
w 37 0.974457 0
w -38 1.617932 0
w 38 0.618073 0
w -40 1.231812 0
w 40 0.811812 0
w -42 0.708268 0
w 42 1.411895 0
w -43 1.363372 0
w 43 0.733475 0
w -45 0.499294 0
w 45 2.002828 0
w -46 0.536435 0
w 46 1.864159 0
w -48 1.130663 0
w 48 0.884437 0
w -49 0.718469 0
w 49 1.391848 0
w -51 1.011623 0
w 51 0.988511 0
w -52 0.422374 0
w 52 2.367569 0
w -54 0.780993 0
w 54 1.280422 0
w -55 1.711755 0
w 55 0.584196 0
w -57 0.478359 0
w 57 2.090481 0
w -58 0.445500 0
w 58 2.244668 0
w -60 1.210008 0
w 60 0.826441 0
w -62 2.071151 0
w 62 0.482823 0
w -63 0.573835 0
w 63 1.742661 0
w -65 0.389024 0
w 65 2.570536 0
w -66 0.423814 0
w 66 2.359524 0
w -68 2.535827 0
w 68 0.394349 0
w -69 2.483002 0
w 69 0.402738 0
w -71 1.818993 0
w 71 0.549755 0
w -72 1.688838 0
w 72 0.592123 0
w -74 0.398451 0
w 74 2.509717 0
w -75 0.685203 0
w 75 1.459423 0
w -77 2.716533 0
w 77 0.368116 0
w -78 0.914092 0
w 78 1.093982 0
w -80 0.781095 0
w 80 1.280254 0
w -82 2.536715 0
w 82 0.394211 0
w -83 1.405101 0
w 83 0.711693 0
w -85 0.409703 0
w 85 2.440793 0
w -86 1.603977 0
w 86 0.623450 0
w -88 0.911909 0
w 88 1.096601 0
w -89 2.361872 0
w 89 0.423393 0
w -91 0.383486 0
w 91 2.607660 0
w -92 1.620778 0
w 92 0.616988 0
w -94 0.402367 0
w 94 2.485296 0
w -95 1.186931 0
w 95 0.842509 0
w -97 0.417480 0
w 97 2.395325 0
w -98 0.564653 0
w 98 1.770998 0
w -100 2.104509 0
w 100 0.475170 0
w -102 1.562138 0
w 102 0.640148 0
w -103 2.100112 0
w 103 0.476165 0
w -105 0.384517 0
w 105 2.600666 0
w -106 0.404387 0
w 106 2.472879 0
w -108 1.818982 0
w 108 0.549758 0
w -109 2.048140 0
w 109 0.488248 0
w -111 1.508238 0
w 111 0.663025 0
w -112 0.391204 0
w 112 2.556209 0
w -114 0.414503 0
w 114 2.412530 0
w -115 1.563820 0
w 115 0.639460 0
w -117 0.776819 0
w 117 1.287301 0
w -118 0.581275 0
w 118 1.720355 0
w -120 0.712786 0
w 120 1.402945 0
w -122 1.237322 0
w 122 0.808197 0
w -124 1.275309 0
w 124 0.784124 0
w -126 2.165880 0
w 126 0.461706 0
w -128 0.642455 0
w 128 1.556529 0
w -130 0.475228 0
w 130 2.104254 0
w -132 1.051009 0
w 132 0.951466 0
2 1 4 0
2 -1 -4 0
-2 1 -4 0
-2 -1 4 0
3 1 21 0
3 -1 -21 0
-3 1 -21 0
-3 -1 21 0
5 4 7 0
5 -4 -7 0
-5 4 -7 0
-5 -4 7 0
6 4 24 0
6 -4 -24 0
-6 4 -24 0
-6 -4 24 0
8 7 10 0
8 -7 -10 0
-8 7 -10 0
-8 -7 10 0
9 7 27 0
9 -7 -27 0
-9 7 -27 0
-9 -7 27 0
11 10 13 0
11 -10 -13 0
-11 10 -13 0
-11 -10 13 0
12 10 30 0
12 -10 -30 0
-12 10 -30 0
-12 -10 30 0
14 13 16 0
14 -13 -16 0
-14 13 -16 0
-14 -13 16 0
15 13 33 0
15 -13 -33 0
-15 13 -33 0
-15 -13 33 0
17 16 19 0
17 -16 -19 0
-17 16 -19 0
-17 -16 19 0
18 16 36 0
18 -16 -36 0
-18 16 -36 0
-18 -16 36 0
20 19 39 0
20 -19 -39 0
-20 19 -39 0
-20 -19 39 0
22 21 24 0
22 -21 -24 0
-22 21 -24 0
-22 -21 24 0
23 21 41 0
23 -21 -41 0
-23 21 -41 0
-23 -21 41 0
25 24 27 0
25 -24 -27 0
-25 24 -27 0
-25 -24 27 0
26 24 44 0
26 -24 -44 0
-26 24 -44 0
-26 -24 44 0
28 27 30 0
28 -27 -30 0
-28 27 -30 0
-28 -27 30 0
29 27 47 0
29 -27 -47 0
-29 27 -47 0
-29 -27 47 0
31 30 33 0
31 -30 -33 0
-31 30 -33 0
-31 -30 33 0
32 30 50 0
32 -30 -50 0
-32 30 -50 0
-32 -30 50 0
34 33 36 0
34 -33 -36 0
-34 33 -36 0
-34 -33 36 0
35 33 53 0
35 -33 -53 0
-35 33 -53 0
-35 -33 53 0
37 36 39 0
37 -36 -39 0
-37 36 -39 0
-37 -36 39 0
38 36 56 0
38 -36 -56 0
-38 36 -56 0
-38 -36 56 0
40 39 59 0
40 -39 -59 0
-40 39 -59 0
-40 -39 59 0
42 41 44 0
42 -41 -44 0
-42 41 -44 0
-42 -41 44 0
43 41 61 0
43 -41 -61 0
-43 41 -61 0
-43 -41 61 0
45 44 47 0
45 -44 -47 0
-45 44 -47 0
-45 -44 47 0
46 44 64 0
46 -44 -64 0
-46 44 -64 0
-46 -44 64 0
48 47 50 0
48 -47 -50 0
-48 47 -50 0
-48 -47 50 0
49 47 67 0
49 -47 -67 0
-49 47 -67 0
-49 -47 67 0
51 50 53 0
51 -50 -53 0
-51 50 -53 0
-51 -50 53 0
52 50 70 0
52 -50 -70 0
-52 50 -70 0
-52 -50 70 0
54 53 56 0
54 -53 -56 0
-54 53 -56 0
-54 -53 56 0
55 53 73 0
55 -53 -73 0
-55 53 -73 0
-55 -53 73 0
57 56 59 0
57 -56 -59 0
-57 56 -59 0
-57 -56 59 0
58 56 76 0
58 -56 -76 0
-58 56 -76 0
-58 -56 76 0
60 59 79 0
60 -59 -79 0
-60 59 -79 0
-60 -59 79 0
62 61 64 0
62 -61 -64 0
-62 61 -64 0
-62 -61 64 0
63 61 81 0
63 -61 -81 0
-63 61 -81 0
-63 -61 81 0
65 64 67 0
65 -64 -67 0
-65 64 -67 0
-65 -64 67 0
66 64 84 0
66 -64 -84 0
-66 64 -84 0
-66 -64 84 0
68 67 70 0
68 -67 -70 0
-68 67 -70 0
-68 -67 70 0
69 67 87 0
69 -67 -87 0
-69 67 -87 0
-69 -67 87 0
71 70 73 0
71 -70 -73 0
-71 70 -73 0
-71 -70 73 0
72 70 90 0
72 -70 -90 0
-72 70 -90 0
-72 -70 90 0
74 73 76 0
74 -73 -76 0
-74 73 -76 0
-74 -73 76 0
75 73 93 0
75 -73 -93 0
-75 73 -93 0
-75 -73 93 0
77 76 79 0
77 -76 -79 0
-77 76 -79 0
-77 -76 79 0
78 76 96 0
78 -76 -96 0
-78 76 -96 0
-78 -76 96 0
80 79 99 0
80 -79 -99 0
-80 79 -99 0
-80 -79 99 0
82 81 84 0
82 -81 -84 0
-82 81 -84 0
-82 -81 84 0
83 81 101 0
83 -81 -101 0
-83 81 -101 0
-83 -81 101 0
85 84 87 0
85 -84 -87 0
-85 84 -87 0
-85 -84 87 0
86 84 104 0
86 -84 -104 0
-86 84 -104 0
-86 -84 104 0
88 87 90 0
88 -87 -90 0
-88 87 -90 0
-88 -87 90 0
89 87 107 0
89 -87 -107 0
-89 87 -107 0
-89 -87 107 0
91 90 93 0
91 -90 -93 0
-91 90 -93 0
-91 -90 93 0
92 90 110 0
92 -90 -110 0
-92 90 -110 0
-92 -90 110 0
94 93 96 0
94 -93 -96 0
-94 93 -96 0
-94 -93 96 0
95 93 113 0
95 -93 -113 0
-95 93 -113 0
-95 -93 113 0
97 96 99 0
97 -96 -99 0
-97 96 -99 0
-97 -96 99 0
98 96 116 0
98 -96 -116 0
-98 96 -116 0
-98 -96 116 0
100 99 119 0
100 -99 -119 0
-100 99 -119 0
-100 -99 119 0
102 101 104 0
102 -101 -104 0
-102 101 -104 0
-102 -101 104 0
103 101 121 0
103 -101 -121 0
-103 101 -121 0
-103 -101 121 0
105 104 107 0
105 -104 -107 0
-105 104 -107 0
-105 -104 107 0
106 104 123 0
106 -104 -123 0
-106 104 -123 0
-106 -104 123 0
108 107 110 0
108 -107 -110 0
-108 107 -110 0
-108 -107 110 0
109 107 125 0
109 -107 -125 0
-109 107 -125 0
-109 -107 125 0
111 110 113 0
111 -110 -113 0
-111 110 -113 0
-111 -110 113 0
112 110 127 0
112 -110 -127 0
-112 110 -127 0
-112 -110 127 0
114 113 116 0
114 -113 -116 0
-114 113 -116 0
-114 -113 116 0
115 113 129 0
115 -113 -129 0
-115 113 -129 0
-115 -113 129 0
117 116 119 0
117 -116 -119 0
-117 116 -119 0
-117 -116 119 0
118 116 131 0
118 -116 -131 0
-118 116 -131 0
-118 -116 131 0
120 119 133 0
120 -119 -133 0
-120 119 -133 0
-120 -119 133 0
122 121 123 0
122 -121 -123 0
-122 121 -123 0
-122 -121 123 0
124 123 125 0
124 -123 -125 0
-124 123 -125 0
-124 -123 125 0
126 125 127 0
126 -125 -127 0
-126 125 -127 0
-126 -125 127 0
128 127 129 0
128 -127 -129 0
-128 127 -129 0
-128 -127 129 0
130 129 131 0
130 -129 -131 0
-130 129 -131 0
-130 -129 131 0
132 131 133 0
132 -131 -133 0
-132 131 -133 0
-132 -131 133 0
