benchmarks/ising_models/2DLattices/SqrLattices/J_unif_-1,1/7x7_square_lattice_unif_frust
ISING
49
2 2 2 2 2 2 2 2 2 2 2 2 2 2 2 2 2 2 2 2 2 2 2 2 2 2 2 2 2 2 2 2 2 2 2 2 2 2 2 2 2 2 2 2 2 2 2 2 2
0 84 1.0 1
2 0 1
2 0 7
2 1 2
2 1 8
2 2 3
2 2 9
2 3 4
2 3 10
2 4 5
2 4 11
2 5 6
2 5 12
2 6 13
2 7 8
2 7 14
2 8 9
2 8 15
2 9 10
2 9 16
2 10 11
2 10 17
2 11 12
2 11 18
2 12 13
2 12 19
2 13 20
2 14 15
2 14 21
2 15 16
2 15 22
2 16 17
2 16 23
2 17 18
2 17 24
2 18 19
2 18 25
2 19 20
2 19 26
2 20 27
2 21 22
2 21 28
2 22 23
2 22 29
2 23 24
2 23 30
2 24 25
2 24 31
2 25 26
2 25 32
2 26 27
2 26 33
2 27 34
2 28 29
2 28 35
2 29 30
2 29 36
2 30 31
2 30 37
2 31 32
2 31 38
2 32 33
2 32 39
2 33 34
2 33 40
2 34 41
2 35 36
2 35 42
2 36 37
2 36 43
2 37 38
2 37 44
2 38 39
2 38 45
2 39 40
2 39 46
2 40 41
2 40 47
2 41 48
2 42 43
2 43 44
2 44 45
2 45 46
2 46 47
2 47 48

4
 0.6327956003514188 -0.6327956003514188
 -0.6327956003514188 0.6327956003514188
4
 0.9762988773086743 -0.9762988773086743
 -0.9762988773086743 0.9762988773086743
4
 0.4697199549820221 -0.4697199549820221
 -0.4697199549820221 0.4697199549820221
4
 0.3946095024841314 -0.3946095024841314
 -0.3946095024841314 0.3946095024841314
4
 0.05588649126093337 -0.05588649126093337
 -0.05588649126093337 0.05588649126093337
4
 0.4274127189461556 -0.4274127189461556
 -0.4274127189461556 0.4274127189461556
4
 -0.9640942587398507 0.9640942587398507
 0.9640942587398507 -0.9640942587398507
4
 -0.697827143327336 0.697827143327336
 0.697827143327336 -0.697827143327336
4
 -0.15886317568587294 0.15886317568587294
 0.15886317568587294 -0.15886317568587294
4
 -0.09588165038299246 0.09588165038299246
 0.09588165038299246 -0.09588165038299246
4
 -0.5526773558823612 0.5526773558823612
 0.5526773558823612 -0.5526773558823612
4
 -0.49059080167850566 0.49059080167850566
 0.49059080167850566 -0.49059080167850566
4
 -0.5629889976433837 0.5629889976433837
 0.5629889976433837 -0.5629889976433837
4
 0.7878058782472637 -0.7878058782472637
 -0.7878058782472637 0.7878058782472637
4
 0.42205834989885216 -0.42205834989885216
 -0.42205834989885216 0.42205834989885216
4
 -0.8277115662301409 0.8277115662301409
 0.8277115662301409 -0.8277115662301409
4
 0.18284157943407675 -0.18284157943407675
 -0.18284157943407675 0.18284157943407675
4
 -0.7654271194156288 0.7654271194156288
 0.7654271194156288 -0.7654271194156288
4
 -0.41305905057090775 0.41305905057090775
 0.41305905057090775 -0.41305905057090775
4
 0.8527082447204153 -0.8527082447204153
 -0.8527082447204153 0.8527082447204153
4
 0.17623900207599874 -0.17623900207599874
 -0.17623900207599874 0.17623900207599874
4
 0.3679036346981388 -0.3679036346981388
 -0.3679036346981388 0.3679036346981388
4
 0.6310466434827353 -0.6310466434827353
 -0.6310466434827353 0.6310466434827353
4
 -0.02587516344390295 0.02587516344390295
 0.02587516344390295 -0.02587516344390295
4
 -0.4811485396151338 0.4811485396151338
 0.4811485396151338 -0.4811485396151338
4
 -0.20848624500893953 0.20848624500893953
 0.20848624500893953 -0.20848624500893953
4
 0.34493247995088416 -0.34493247995088416
 -0.34493247995088416 0.34493247995088416
4
 -0.3099613044800942 0.3099613044800942
 0.3099613044800942 -0.3099613044800942
4
 0.6945604015747726 -0.6945604015747726
 -0.6945604015747726 0.6945604015747726
4
 0.6228099220420982 -0.6228099220420982
 -0.6228099220420982 0.6228099220420982
4
 -0.12280436153090868 0.12280436153090868
 0.12280436153090868 -0.12280436153090868
4
 0.330632655155489 -0.330632655155489
 -0.330632655155489 0.330632655155489
4
 -0.011555891363039583 0.011555891363039583
 0.011555891363039583 -0.011555891363039583
4
 0.8618637687612858 -0.8618637687612858
 -0.8618637687612858 0.8618637687612858
4
 0.2471894373129282 -0.2471894373129282
 -0.2471894373129282 0.2471894373129282
4
 -0.5375191307408593 0.5375191307408593
 0.5375191307408593 -0.5375191307408593
4
 0.7373943479210199 -0.7373943479210199
 -0.7373943479210199 0.7373943479210199
4
 0.8085578368578992 -0.8085578368578992
 -0.8085578368578992 0.8085578368578992
4
 -0.19062684740487779 0.19062684740487779
 0.19062684740487779 -0.19062684740487779
4
 -0.7281045068256529 0.7281045068256529
 0.7281045068256529 -0.7281045068256529
4
 0.5554133493785356 -0.5554133493785356
 -0.5554133493785356 0.5554133493785356
4
 0.9441143388869806 -0.9441143388869806
 -0.9441143388869806 0.9441143388869806
4
 0.8584598282893481 -0.8584598282893481
 -0.8584598282893481 0.8584598282893481
4
 -0.9305196802202322 0.9305196802202322
 0.9305196802202322 -0.9305196802202322
4
 -0.9094682755307526 0.9094682755307526
 0.9094682755307526 -0.9094682755307526
4
 -0.5982832899413999 0.5982832899413999
 0.5982832899413999 -0.5982832899413999
4
 -0.5240406324137101 0.5240406324137101
 0.5240406324137101 -0.5240406324137101
4
 0.9201699528708573 -0.9201699528708573
 -0.9201699528708573 0.9201699528708573
4
 0.3780408347480524 -0.3780408347480524
 -0.3780408347480524 0.3780408347480524
4
 -0.9993565146180663 0.9993565146180663
 0.9993565146180663 -0.9993565146180663
4
 0.08982426067690308 -0.08982426067690308
 -0.08982426067690308 0.08982426067690308
4
 0.24705812689947804 -0.24705812689947804
 -0.24705812689947804 0.24705812689947804
4
 -0.9308700579000582 0.9308700579000582
 0.9308700579000582 -0.9308700579000582
4
 -0.3401089565932718 0.3401089565932718
 0.3401089565932718 -0.3401089565932718
4
 0.8923229332507672 -0.8923229332507672
 -0.8923229332507672 0.8923229332507672
4
 -0.47248637322179166 0.47248637322179166
 0.47248637322179166 -0.47248637322179166
4
 0.09221558655163342 -0.09221558655163342
 -0.09221558655163342 0.09221558655163342
4
 -0.859454483278554 0.859454483278554
 0.859454483278554 -0.859454483278554
4
 0.9584532823163603 -0.9584532823163603
 -0.9584532823163603 0.9584532823163603
4
 -0.48290628742260755 0.48290628742260755
 0.48290628742260755 -0.48290628742260755
4
 0.9103918767902419 -0.9103918767902419
 -0.9103918767902419 0.9103918767902419
4
 -0.1713713235741241 0.1713713235741241
 0.1713713235741241 -0.1713713235741241
4
 0.8735191065031875 -0.8735191065031875
 -0.8735191065031875 0.8735191065031875
4
 0.5715432802564995 -0.5715432802564995
 -0.5715432802564995 0.5715432802564995
4
 -0.7440822153756845 0.7440822153756845
 0.7440822153756845 -0.7440822153756845
4
 -0.4460552057814646 0.4460552057814646
 0.4460552057814646 -0.4460552057814646
4
 -0.7419904559569523 0.7419904559569523
 0.7419904559569523 -0.7419904559569523
4
 0.9557674946221362 -0.9557674946221362
 -0.9557674946221362 0.9557674946221362
4
 0.905383032332516 -0.905383032332516
 -0.905383032332516 0.905383032332516
4
 -0.5982771082859359 0.5982771082859359
 0.5982771082859359 -0.5982771082859359
4
 -0.7169319136496446 0.7169319136496446
 0.7169319136496446 -0.7169319136496446
4
 -0.41094241153396727 0.41094241153396727
 0.41094241153396727 -0.41094241153396727
4
 0.9385254664720555 -0.9385254664720555
 -0.9385254664720555 0.9385254664720555
4
 0.8806760055838792 -0.8806760055838792
 -0.8806760055838792 0.8806760055838792
4
 -0.4471313867849307 0.4471313867849307
 0.4471313867849307 -0.4471313867849307
4
 0.25254745288226554 -0.25254745288226554
 -0.25254745288226554 0.25254745288226554
4
 0.5425309463852175 -0.5425309463852175
 -0.5425309463852175 0.5425309463852175
4
 0.3385737522470955 -0.3385737522470955
 -0.3385737522470955 0.3385737522470955
4
 -0.21294917215929976 0.21294917215929976
 0.21294917215929976 -0.21294917215929976
4
 -0.24318852668943158 0.24318852668943158
 0.24318852668943158 -0.24318852668943158
4
 -0.7728266050583612 0.7728266050583612
 0.7728266050583612 -0.7728266050583612
4
 0.4424585819363238 -0.4424585819363238
 -0.4424585819363238 0.4424585819363238
4
 0.7439612265150377 -0.7439612265150377
 -0.7439612265150377 0.7439612265150377
4
 -0.04975096540761892 0.04975096540761892
 0.04975096540761892 -0.04975096540761892
